1959.27 0
0 23 91 96 90 92 18 0
0 62 56 48 47 36 31 33 40 39 41 28 67 30 58 44 29 60 0
0 25 69 71 72 70 0
0 22 14 73 74 75 24 0
0 12 15 16 13 85 81 86 84 82 87 50 83 65 0
0 19 20 26 99 17 0
0 32 46 37 42 34 38 43 54 59 53 0
0 61 51 77 78 79 76 80 0
0 95 98 94 88 89 93 97 11 0
0 52 55 57 63 35 45 49 68 66 64 0
0 27 7 100 6 8 9 2 1 10 5 3 4 21 0
